data;

param n := 160;

set E :=
	1 2
	1 14
	1 17
	1 28
	1 29
	1 30
	1 31
	1 32
	1 33
	1 37
	1 52
	1 56
	1 57
	1 61
	1 64
	1 68
	1 69
	1 72
	1 75
	1 80
	1 81
	1 92
	1 94
	1 98
	1 102
	1 105
	1 106
	1 107
	1 118
	1 123
	1 127
	1 130
	1 134
	1 135
	1 136
	1 137
	1 141
	1 156
	1 157
	1 158
	2 14
	2 22
	2 29
	2 30
	2 31
	2 32
	2 33
	2 37
	2 56
	2 57
	2 61
	2 64
	2 68
	2 69
	2 72
	2 80
	2 81
	2 92
	2 94
	2 105
	2 106
	2 123
	2 127
	2 130
	2 134
	2 137
	2 156
	2 157
	2 158
	3 4
	3 6
	3 7
	3 11
	3 12
	3 13
	3 17
	3 19
	3 20
	3 21
	3 22
	3 25
	3 30
	3 32
	3 34
	3 37
	3 38
	3 42
	3 43
	3 45
	3 46
	3 48
	3 49
	3 50
	3 51
	3 53
	3 55
	3 58
	3 60
	3 63
	3 65
	3 66
	3 67
	3 68
	3 71
	3 73
	3 76
	3 78
	3 79
	3 82
	3 85
	3 86
	3 89
	3 90
	3 91
	3 93
	3 95
	3 98
	3 99
	3 101
	3 102
	3 103
	3 104
	3 105
	3 108
	3 109
	3 110
	3 111
	3 112
	3 114
	3 116
	3 117
	3 119
	3 120
	3 122
	3 123
	3 126
	3 128
	3 129
	3 132
	3 133
	3 136
	3 138
	3 139
	3 140
	3 141
	3 145
	3 147
	3 151
	3 153
	3 154
	3 159
	3 160
	4 5
	4 6
	4 11
	4 17
	4 20
	4 22
	4 29
	4 30
	4 31
	4 32
	4 33
	4 34
	4 37
	4 38
	4 46
	4 48
	4 50
	4 51
	4 55
	4 57
	4 58
	4 60
	4 61
	4 63
	4 65
	4 66
	4 67
	4 68
	4 69
	4 71
	4 72
	4 73
	4 76
	4 78
	4 80
	4 82
	4 86
	4 89
	4 90
	4 91
	4 92
	4 95
	4 98
	4 101
	4 102
	4 103
	4 104
	4 105
	4 108
	4 109
	4 110
	4 112
	4 114
	4 116
	4 117
	4 118
	4 120
	4 122
	4 123
	4 126
	4 128
	4 129
	4 132
	4 136
	4 138
	4 139
	4 140
	4 141
	4 146
	4 147
	4 151
	4 153
	4 154
	4 159
	5 6
	5 8
	5 11
	5 15
	5 16
	5 17
	5 18
	5 20
	5 23
	5 27
	5 28
	5 35
	5 36
	5 39
	5 40
	5 41
	5 42
	5 44
	5 46
	5 48
	5 60
	5 61
	5 62
	5 67
	5 70
	5 71
	5 74
	5 75
	5 77
	5 81
	5 83
	5 84
	5 87
	5 88
	5 90
	5 97
	5 99
	5 100
	5 102
	5 107
	5 109
	5 110
	5 111
	5 112
	5 113
	5 116
	5 117
	5 118
	5 121
	5 124
	5 125
	5 126
	5 128
	5 129
	5 131
	5 135
	5 138
	5 141
	5 143
	5 144
	5 150
	5 152
	5 155
	5 159
	6 7
	6 9
	6 11
	6 16
	6 17
	6 18
	6 19
	6 20
	6 25
	6 30
	6 32
	6 34
	6 35
	6 37
	6 38
	6 42
	6 45
	6 46
	6 48
	6 49
	6 51
	6 55
	6 58
	6 60
	6 63
	6 65
	6 66
	6 67
	6 68
	6 71
	6 73
	6 74
	6 76
	6 78
	6 82
	6 86
	6 89
	6 90
	6 91
	6 93
	6 95
	6 98
	6 99
	6 101
	6 102
	6 104
	6 105
	6 108
	6 109
	6 110
	6 111
	6 112
	6 114
	6 116
	6 117
	6 118
	6 119
	6 120
	6 122
	6 123
	6 126
	6 128
	6 129
	6 136
	6 138
	6 139
	6 140
	6 141
	6 145
	6 147
	6 151
	6 153
	6 154
	6 159
	6 160
	7 9
	7 10
	7 13
	7 18
	7 19
	7 20
	7 21
	7 25
	7 34
	7 38
	7 42
	7 43
	7 45
	7 49
	7 51
	7 60
	7 65
	7 73
	7 76
	7 78
	7 82
	7 85
	7 86
	7 91
	7 93
	7 95
	7 96
	7 99
	7 101
	7 104
	7 108
	7 110
	7 111
	7 117
	7 119
	7 120
	7 122
	7 128
	7 133
	7 139
	7 140
	7 142
	7 145
	7 147
	7 151
	7 154
	7 159
	7 160
	8 15
	8 16
	8 23
	8 35
	8 36
	8 39
	8 40
	8 41
	8 44
	8 52
	8 62
	8 70
	8 74
	8 75
	8 77
	8 83
	8 84
	8 87
	8 88
	8 97
	8 100
	8 107
	8 113
	8 121
	8 124
	8 131
	8 135
	8 143
	8 144
	8 152
	8 155
	9 10
	9 16
	9 18
	9 19
	9 25
	9 27
	9 34
	9 35
	9 42
	9 45
	9 46
	9 47
	9 48
	9 49
	9 54
	9 60
	9 65
	9 74
	9 76
	9 78
	9 82
	9 86
	9 90
	9 93
	9 95
	9 99
	9 108
	9 110
	9 111
	9 115
	9 116
	9 117
	9 119
	9 122
	9 125
	9 128
	9 142
	9 145
	9 150
	9 154
	9 159
	9 160
	10 18
	10 19
	10 25
	10 27
	10 42
	10 45
	10 46
	10 47
	10 54
	10 65
	10 78
	10 82
	10 93
	10 95
	10 99
	10 110
	10 111
	10 115
	10 119
	10 122
	10 125
	10 128
	10 142
	10 145
	10 150
	10 154
	10 160
	11 16
	11 17
	11 20
	11 22
	11 28
	11 29
	11 30
	11 32
	11 35
	11 37
	11 38
	11 46
	11 48
	11 55
	11 57
	11 58
	11 60
	11 61
	11 63
	11 65
	11 66
	11 67
	11 68
	11 69
	11 71
	11 72
	11 73
	11 75
	11 76
	11 78
	11 80
	11 82
	11 86
	11 89
	11 90
	11 91
	11 92
	11 95
	11 98
	11 99
	11 101
	11 102
	11 103
	11 105
	11 108
	11 109
	11 110
	11 111
	11 112
	11 114
	11 116
	11 117
	11 118
	11 120
	11 122
	11 123
	11 126
	11 128
	11 129
	11 136
	11 138
	11 139
	11 141
	11 151
	11 153
	11 154
	11 159
	12 13
	12 21
	12 22
	12 24
	12 26
	12 38
	12 43
	12 50
	12 51
	12 53
	12 55
	12 58
	12 59
	12 63
	12 66
	12 73
	12 79
	12 85
	12 86
	12 89
	12 91
	12 96
	12 98
	12 101
	12 103
	12 104
	12 120
	12 132
	12 133
	12 139
	12 140
	12 146
	12 147
	12 148
	12 149
	12 151
	12 153
	13 21
	13 24
	13 26
	13 34
	13 38
	13 43
	13 49
	13 50
	13 51
	13 53
	13 58
	13 59
	13 65
	13 73
	13 76
	13 78
	13 79
	13 82
	13 85
	13 86
	13 91
	13 93
	13 95
	13 96
	13 101
	13 104
	13 108
	13 119
	13 120
	13 122
	13 132
	13 133
	13 139
	13 140
	13 147
	13 148
	13 149
	13 151
	13 153
	13 154
	14 17
	14 22
	14 28
	14 29
	14 30
	14 31
	14 32
	14 33
	14 37
	14 55
	14 56
	14 57
	14 61
	14 63
	14 64
	14 66
	14 68
	14 69
	14 72
	14 80
	14 81
	14 89
	14 92
	14 94
	14 98
	14 102
	14 103
	14 105
	14 106
	14 114
	14 118
	14 123
	14 127
	14 130
	14 134
	14 136
	14 137
	14 141
	14 146
	14 156
	14 157
	14 158
	15 16
	15 17
	15 23
	15 27
	15 28
	15 35
	15 36
	15 39
	15 40
	15 41
	15 44
	15 46
	15 48
	15 52
	15 61
	15 62
	15 67
	15 70
	15 74
	15 75
	15 77
	15 81
	15 83
	15 84
	15 87
	15 88
	15 90
	15 97
	15 100
	15 107
	15 109
	15 113
	15 116
	15 118
	15 121
	15 124
	15 126
	15 129
	15 131
	15 135
	15 141
	15 143
	15 144
	15 152
	15 155
	16 18
	16 20
	16 23
	16 25
	16 27
	16 35
	16 36
	16 39
	16 40
	16 41
	16 42
	16 44
	16 45
	16 46
	16 47
	16 48
	16 54
	16 60
	16 62
	16 67
	16 70
	16 74
	16 83
	16 84
	16 88
	16 90
	16 95
	16 97
	16 99
	16 100
	16 108
	16 109
	16 110
	16 111
	16 113
	16 115
	16 116
	16 117
	16 121
	16 124
	16 125
	16 126
	16 128
	16 129
	16 131
	16 138
	16 141
	16 142
	16 143
	16 144
	16 150
	16 152
	16 154
	16 155
	16 159
	16 160
	17 20
	17 28
	17 29
	17 30
	17 31
	17 32
	17 37
	17 38
	17 39
	17 40
	17 46
	17 48
	17 52
	17 55
	17 57
	17 60
	17 61
	17 63
	17 66
	17 67
	17 68
	17 69
	17 70
	17 71
	17 72
	17 75
	17 77
	17 80
	17 81
	17 83
	17 84
	17 87
	17 88
	17 89
	17 90
	17 92
	17 97
	17 98
	17 102
	17 105
	17 106
	17 107
	17 109
	17 112
	17 113
	17 114
	17 116
	17 117
	17 118
	17 121
	17 123
	17 126
	17 127
	17 128
	17 129
	17 134
	17 135
	17 136
	17 138
	17 141
	17 143
	17 151
	17 152
	17 157
	17 158
	17 159
	18 19
	18 20
	18 25
	18 27
	18 35
	18 39
	18 41
	18 42
	18 45
	18 46
	18 47
	18 48
	18 54
	18 60
	18 65
	18 74
	18 76
	18 78
	18 82
	18 90
	18 93
	18 95
	18 99
	18 108
	18 110
	18 111
	18 115
	18 116
	18 117
	18 119
	18 122
	18 125
	18 128
	18 131
	18 142
	18 145
	18 150
	18 154
	18 159
	18 160
	19 21
	19 25
	19 34
	19 42
	19 45
	19 46
	19 47
	19 49
	19 51
	19 54
	19 60
	19 65
	19 73
	19 76
	19 78
	19 82
	19 86
	19 93
	19 95
	19 99
	19 108
	19 110
	19 111
	19 115
	19 117
	19 119
	19 122
	19 128
	19 140
	19 142
	19 145
	19 147
	19 150
	19 154
	19 159
	19 160
	20 25
	20 30
	20 32
	20 34
	20 35
	20 37
	20 38
	20 39
	20 42
	20 45
	20 46
	20 48
	20 49
	20 51
	20 55
	20 58
	20 60
	20 63
	20 65
	20 66
	20 67
	20 68
	20 71
	20 73
	20 74
	20 76
	20 78
	20 82
	20 86
	20 89
	20 90
	20 91
	20 92
	20 93
	20 95
	20 98
	20 99
	20 101
	20 102
	20 104
	20 105
	20 108
	20 109
	20 110
	20 111
	20 112
	20 114
	20 116
	20 117
	20 118
	20 119
	20 120
	20 122
	20 123
	20 126
	20 128
	20 129
	20 136
	20 138
	20 139
	20 140
	20 141
	20 147
	20 151
	20 153
	20 154
	20 159
	20 160
	21 24
	21 26
	21 34
	21 38
	21 43
	21 49
	21 51
	21 53
	21 59
	21 65
	21 73
	21 76
	21 78
	21 79
	21 82
	21 85
	21 86
	21 91
	21 93
	21 95
	21 96
	21 101
	21 104
	21 108
	21 117
	21 119
	21 120
	21 122
	21 133
	21 139
	21 140
	21 145
	21 147
	21 148
	21 149
	21 151
	21 154
	21 159
	22 29
	22 30
	22 31
	22 32
	22 33
	22 37
	22 38
	22 50
	22 53
	22 55
	22 56
	22 57
	22 58
	22 63
	22 64
	22 66
	22 68
	22 69
	22 71
	22 72
	22 73
	22 80
	22 89
	22 91
	22 98
	22 102
	22 103
	22 105
	22 112
	22 114
	22 120
	22 123
	22 132
	22 134
	22 136
	22 139
	22 146
	22 151
	22 153
	22 156
	22 158
	23 27
	23 35
	23 36
	23 39
	23 40
	23 41
	23 44
	23 46
	23 48
	23 62
	23 67
	23 70
	23 74
	23 77
	23 83
	23 84
	23 87
	23 88
	23 90
	23 97
	23 100
	23 109
	23 113
	23 121
	23 124
	23 125
	23 131
	23 143
	23 144
	23 152
	23 155
	24 26
	24 34
	24 43
	24 49
	24 50
	24 51
	24 53
	24 58
	24 59
	24 73
	24 78
	24 79
	24 85
	24 86
	24 91
	24 96
	24 101
	24 104
	24 120
	24 132
	24 133
	24 139
	24 140
	24 147
	24 148
	24 149
	24 153
	25 27
	25 34
	25 35
	25 42
	25 45
	25 46
	25 47
	25 48
	25 49
	25 54
	25 60
	25 65
	25 73
	25 74
	25 76
	25 78
	25 82
	25 86
	25 90
	25 93
	25 95
	25 99
	25 108
	25 110
	25 111
	25 115
	25 116
	25 117
	25 119
	25 122
	25 125
	25 128
	25 129
	25 138
	25 142
	25 145
	25 150
	25 154
	25 159
	25 160
	26 43
	26 50
	26 51
	26 53
	26 58
	26 59
	26 79
	26 85
	26 91
	26 96
	26 101
	26 104
	26 120
	26 132
	26 133
	26 139
	26 140
	26 147
	26 148
	26 149
	26 153
	27 35
	27 39
	27 40
	27 41
	27 42
	27 45
	27 46
	27 47
	27 48
	27 54
	27 60
	27 67
	27 70
	27 74
	27 83
	27 88
	27 90
	27 95
	27 99
	27 100
	27 109
	27 110
	27 111
	27 113
	27 115
	27 116
	27 125
	27 126
	27 128
	27 129
	27 131
	27 142
	27 144
	27 150
	27 155
	27 160
	28 29
	28 30
	28 32
	28 36
	28 37
	28 40
	28 44
	28 52
	28 61
	28 62
	28 67
	28 68
	28 69
	28 70
	28 71
	28 72
	28 75
	28 77
	28 80
	28 81
	28 83
	28 84
	28 87
	28 88
	28 92
	28 97
	28 102
	28 105
	28 106
	28 107
	28 109
	28 113
	28 114
	28 118
	28 121
	28 123
	28 124
	28 126
	28 127
	28 129
	28 134
	28 135
	28 141
	28 143
	28 152
	28 157
	28 158
	29 30
	29 31
	29 32
	29 33
	29 37
	29 38
	29 50
	29 55
	29 56
	29 57
	29 58
	29 61
	29 63
	29 64
	29 66
	29 68
	29 69
	29 71
	29 72
	29 80
	29 81
	29 89
	29 92
	29 94
	29 98
	29 102
	29 103
	29 105
	29 106
	29 112
	29 114
	29 118
	29 123
	29 127
	29 130
	29 134
	29 136
	29 137
	29 141
	29 146
	29 151
	29 153
	29 156
	29 157
	29 158
	30 31
	30 32
	30 33
	30 37
	30 38
	30 52
	30 55
	30 56
	30 57
	30 58
	30 61
	30 63
	30 64
	30 66
	30 67
	30 68
	30 69
	30 71
	30 72
	30 75
	30 77
	30 80
	30 81
	30 89
	30 92
	30 94
	30 98
	30 102
	30 103
	30 105
	30 106
	30 107
	30 109
	30 112
	30 114
	30 116
	30 117
	30 118
	30 121
	30 123
	30 126
	30 127
	30 129
	30 130
	30 134
	30 135
	30 136
	30 137
	30 138
	30 141
	30 151
	30 152
	30 156
	30 157
	30 158
	30 159
	31 32
	31 33
	31 37
	31 50
	31 55
	31 56
	31 57
	31 58
	31 63
	31 64
	31 66
	31 68
	31 69
	31 71
	31 72
	31 80
	31 89
	31 92
	31 94
	31 98
	31 102
	31 103
	31 105
	31 106
	31 112
	31 114
	31 123
	31 127
	31 130
	31 132
	31 134
	31 136
	31 137
	31 146
	31 153
	31 156
	31 157
	31 158
	32 33
	32 37
	32 38
	32 50
	32 53
	32 55
	32 57
	32 58
	32 60
	32 61
	32 63
	32 64
	32 66
	32 67
	32 68
	32 69
	32 71
	32 72
	32 73
	32 76
	32 80
	32 86
	32 89
	32 91
	32 92
	32 98
	32 102
	32 103
	32 105
	32 108
	32 109
	32 112
	32 114
	32 116
	32 117
	32 118
	32 120
	32 123
	32 126
	32 127
	32 129
	32 132
	32 134
	32 136
	32 138
	32 139
	32 141
	32 146
	32 151
	32 153
	32 156
	32 158
	32 159
	33 37
	33 38
	33 50
	33 53
	33 55
	33 56
	33 57
	33 58
	33 63
	33 64
	33 66
	33 68
	33 69
	33 71
	33 72
	33 80
	33 89
	33 91
	33 92
	33 94
	33 98
	33 102
	33 103
	33 105
	33 112
	33 114
	33 120
	33 123
	33 127
	33 130
	33 132
	33 134
	33 136
	33 137
	33 146
	33 151
	33 153
	33 156
	33 158
	34 38
	34 43
	34 45
	34 49
	34 51
	34 60
	34 65
	34 73
	34 76
	34 78
	34 79
	34 82
	34 85
	34 86
	34 91
	34 93
	34 95
	34 96
	34 99
	34 101
	34 104
	34 108
	34 110
	34 111
	34 117
	34 119
	34 120
	34 122
	34 128
	34 133
	34 138
	34 139
	34 140
	34 142
	34 145
	34 147
	34 148
	34 151
	34 154
	34 159
	34 160
	35 36
	35 39
	35 40
	35 41
	35 42
	35 44
	35 45
	35 46
	35 47
	35 48
	35 54
	35 60
	35 65
	35 67
	35 70
	35 71
	35 74
	35 76
	35 83
	35 88
	35 90
	35 95
	35 97
	35 99
	35 100
	35 108
	35 109
	35 110
	35 111
	35 113
	35 115
	35 116
	35 117
	35 121
	35 124
	35 125
	35 126
	35 128
	35 129
	35 131
	35 138
	35 141
	35 142
	35 143
	35 144
	35 150
	35 152
	35 154
	35 155
	35 159
	35 160
	36 39
	36 40
	36 41
	36 44
	36 48
	36 52
	36 61
	36 62
	36 67
	36 70
	36 74
	36 75
	36 77
	36 81
	36 83
	36 84
	36 87
	36 88
	36 90
	36 97
	36 100
	36 107
	36 109
	36 113
	36 118
	36 121
	36 124
	36 131
	36 135
	36 141
	36 143
	36 144
	36 152
	36 155
	37 38
	37 52
	37 55
	37 56
	37 57
	37 58
	37 60
	37 61
	37 63
	37 64
	37 66
	37 67
	37 68
	37 69
	37 71
	37 72
	37 75
	37 80
	37 81
	37 89
	37 90
	37 92
	37 94
	37 98
	37 102
	37 103
	37 105
	37 106
	37 107
	37 109
	37 112
	37 114
	37 116
	37 117
	37 118
	37 121
	37 123
	37 126
	37 127
	37 128
	37 129
	37 134
	37 135
	37 136
	37 137
	37 138
	37 141
	37 151
	37 152
	37 156
	37 157
	37 158
	37 159
	38 46
	38 49
	38 50
	38 51
	38 53
	38 55
	38 57
	38 58
	38 60
	38 63
	38 65
	38 66
	38 67
	38 68
	38 71
	38 73
	38 76
	38 78
	38 79
	38 82
	38 85
	38 86
	38 89
	38 90
	38 91
	38 93
	38 95
	38 98
	38 101
	38 102
	38 103
	38 104
	38 105
	38 108
	38 109
	38 110
	38 112
	38 114
	38 116
	38 117
	38 119
	38 120
	38 122
	38 123
	38 126
	38 128
	38 129
	38 132
	38 133
	38 136
	38 138
	38 139
	38 140
	38 141
	38 146
	38 147
	38 149
	38 151
	38 153
	38 154
	38 159
	39 40
	39 41
	39 42
	39 44
	39 46
	39 48
	39 60
	39 62
	39 67
	39 70
	39 74
	39 75
	39 77
	39 83
	39 84
	39 87
	39 88
	39 90
	39 97
	39 99
	39 100
	39 107
	39 109
	39 110
	39 111
	39 113
	39 116
	39 118
	39 121
	39 124
	39 125
	39 126
	39 128
	39 129
	39 131
	39 135
	39 138
	39 141
	39 143
	39 144
	39 150
	39 152
	39 155
	40 41
	40 44
	40 46
	40 48
	40 52
	40 61
	40 62
	40 67
	40 70
	40 74
	40 75
	40 77
	40 81
	40 83
	40 84
	40 87
	40 88
	40 90
	40 97
	40 100
	40 107
	40 109
	40 113
	40 118
	40 121
	40 124
	40 126
	40 129
	40 131
	40 135
	40 141
	40 143
	40 144
	40 152
	40 155
	41 42
	41 44
	41 46
	41 47
	41 48
	41 54
	41 62
	41 67
	41 70
	41 74
	41 83
	41 84
	41 88
	41 90
	41 97
	41 99
	41 100
	41 109
	41 110
	41 111
	41 113
	41 115
	41 116
	41 121
	41 124
	41 125
	41 126
	41 128
	41 129
	41 131
	41 143
	41 144
	41 150
	41 152
	41 155
	41 160
	42 45
	42 46
	42 47
	42 48
	42 54
	42 60
	42 65
	42 67
	42 74
	42 76
	42 78
	42 82
	42 88
	42 90
	42 93
	42 95
	42 99
	42 108
	42 110
	42 111
	42 115
	42 116
	42 117
	42 119
	42 122
	42 125
	42 126
	42 128
	42 129
	42 131
	42 138
	42 142
	42 145
	42 150
	42 154
	42 159
	42 160
	43 49
	43 50
	43 51
	43 53
	43 58
	43 59
	43 65
	43 73
	43 78
	43 79
	43 82
	43 85
	43 86
	43 91
	43 93
	43 96
	43 101
	43 104
	43 120
	43 122
	43 132
	43 133
	43 139
	43 140
	43 147
	43 148
	43 149
	43 153
	44 48
	44 52
	44 61
	44 62
	44 67
	44 70
	44 74
	44 75
	44 77
	44 81
	44 83
	44 84
	44 87
	44 88
	44 97
	44 100
	44 107
	44 109
	44 113
	44 118
	44 121
	44 124
	44 131
	44 135
	44 141
	44 143
	44 144
	44 152
	44 155
	45 46
	45 47
	45 48
	45 49
	45 54
	45 60
	45 65
	45 74
	45 76
	45 78
	45 82
	45 86
	45 90
	45 93
	45 95
	45 99
	45 108
	45 110
	45 111
	45 115
	45 116
	45 117
	45 119
	45 122
	45 125
	45 128
	45 129
	45 138
	45 142
	45 145
	45 150
	45 154
	45 159
	45 160
	46 47
	46 48
	46 54
	46 60
	46 65
	46 67
	46 70
	46 71
	46 73
	46 74
	46 76
	46 78
	46 82
	46 83
	46 86
	46 88
	46 90
	46 95
	46 99
	46 100
	46 102
	46 108
	46 109
	46 110
	46 111
	46 112
	46 113
	46 114
	46 115
	46 116
	46 117
	46 119
	46 121
	46 122
	46 125
	46 126
	46 128
	46 129
	46 131
	46 138
	46 141
	46 142
	46 143
	46 144
	46 145
	46 150
	46 151
	46 154
	46 159
	46 160
	47 48
	47 54
	47 74
	47 99
	47 110
	47 111
	47 115
	47 125
	47 142
	47 145
	47 150
	47 160
	48 54
	48 60
	48 65
	48 67
	48 70
	48 71
	48 74
	48 75
	48 76
	48 83
	48 84
	48 88
	48 90
	48 95
	48 97
	48 99
	48 100
	48 102
	48 108
	48 109
	48 110
	48 111
	48 112
	48 113
	48 115
	48 116
	48 117
	48 118
	48 121
	48 124
	48 125
	48 126
	48 128
	48 129
	48 131
	48 138
	48 141
	48 142
	48 143
	48 144
	48 150
	48 151
	48 152
	48 154
	48 155
	48 159
	48 160
	49 51
	49 60
	49 65
	49 73
	49 76
	49 78
	49 79
	49 82
	49 85
	49 86
	49 91
	49 93
	49 95
	49 96
	49 99
	49 101
	49 104
	49 108
	49 110
	49 111
	49 117
	49 119
	49 120
	49 122
	49 128
	49 133
	49 138
	49 139
	49 140
	49 142
	49 145
	49 147
	49 148
	49 151
	49 154
	49 159
	49 160
	50 51
	50 53
	50 55
	50 57
	50 58
	50 59
	50 63
	50 66
	50 68
	50 71
	50 72
	50 73
	50 76
	50 79
	50 85
	50 86
	50 89
	50 91
	50 96
	50 98
	50 101
	50 103
	50 104
	50 105
	50 112
	50 114
	50 120
	50 132
	50 133
	50 136
	50 139
	50 140
	50 146
	50 147
	50 148
	50 149
	50 151
	50 153
	50 159
	51 53
	51 55
	51 58
	51 59
	51 60
	51 63
	51 65
	51 66
	51 73
	51 76
	51 78
	51 79
	51 82
	51 85
	51 86
	51 91
	51 93
	51 95
	51 96
	51 101
	51 104
	51 108
	51 110
	51 112
	51 117
	51 119
	51 120
	51 122
	51 132
	51 133
	51 138
	51 139
	51 140
	51 145
	51 147
	51 148
	51 149
	51 151
	51 153
	51 154
	51 159
	52 61
	52 62
	52 67
	52 70
	52 75
	52 77
	52 81
	52 83
	52 84
	52 87
	52 92
	52 97
	52 106
	52 107
	52 109
	52 113
	52 118
	52 121
	52 124
	52 127
	52 135
	52 141
	52 143
	52 152
	52 157
	53 55
	53 57
	53 58
	53 59
	53 63
	53 66
	53 73
	53 79
	53 85
	53 86
	53 89
	53 91
	53 96
	53 98
	53 101
	53 103
	53 104
	53 114
	53 120
	53 132
	53 133
	53 136
	53 139
	53 140
	53 146
	53 147
	53 148
	53 149
	53 151
	53 153
	54 74
	54 99
	54 111
	54 115
	54 125
	54 142
	54 145
	54 150
	54 160
	55 57
	55 58
	55 59
	55 60
	55 63
	55 64
	55 65
	55 66
	55 68
	55 69
	55 71
	55 72
	55 73
	55 76
	55 78
	55 79
	55 80
	55 85
	55 86
	55 89
	55 91
	55 98
	55 101
	55 102
	55 103
	55 104
	55 105
	55 108
	55 112
	55 114
	55 116
	55 117
	55 120
	55 123
	55 126
	55 129
	55 132
	55 136
	55 138
	55 139
	55 140
	55 141
	55 146
	55 147
	55 149
	55 151
	55 153
	55 154
	55 159
	56 57
	56 64
	56 68
	56 69
	56 72
	56 80
	56 92
	56 94
	56 105
	56 106
	56 123
	56 127
	56 130
	56 134
	56 137
	56 156
	56 157
	56 158
	57 58
	57 63
	57 64
	57 66
	57 68
	57 69
	57 71
	57 72
	57 80
	57 89
	57 91
	57 92
	57 94
	57 98
	57 102
	57 103
	57 105
	57 112
	57 114
	57 120
	57 123
	57 127
	57 130
	57 132
	57 134
	57 136
	57 137
	57 146
	57 151
	57 153
	57 156
	57 158
	58 59
	58 60
	58 63
	58 64
	58 65
	58 66
	58 68
	58 69
	58 71
	58 72
	58 73
	58 76
	58 78
	58 79
	58 80
	58 85
	58 86
	58 89
	58 91
	58 98
	58 101
	58 102
	58 103
	58 104
	58 105
	58 108
	58 112
	58 114
	58 117
	58 120
	58 123
	58 129
	58 132
	58 133
	58 136
	58 138
	58 139
	58 140
	58 146
	58 147
	58 148
	58 149
	58 151
	58 153
	58 154
	58 159
	59 73
	59 79
	59 85
	59 86
	59 91
	59 96
	59 101
	59 104
	59 120
	59 132
	59 133
	59 139
	59 140
	59 147
	59 148
	59 149
	59 153
	60 63
	60 65
	60 66
	60 67
	60 71
	60 73
	60 74
	60 76
	60 78
	60 82
	60 86
	60 90
	60 91
	60 93
	60 95
	60 98
	60 99
	60 101
	60 102
	60 108
	60 109
	60 110
	60 111
	60 112
	60 114
	60 116
	60 117
	60 119
	60 120
	60 122
	60 123
	60 126
	60 128
	60 129
	60 136
	60 138
	60 139
	60 140
	60 141
	60 142
	60 145
	60 147
	60 150
	60 151
	60 154
	60 159
	60 160
	61 62
	61 67
	61 68
	61 69
	61 70
	61 71
	61 72
	61 75
	61 77
	61 80
	61 81
	61 83
	61 84
	61 87
	61 88
	61 92
	61 97
	61 98
	61 102
	61 105
	61 106
	61 107
	61 109
	61 112
	61 113
	61 114
	61 116
	61 118
	61 121
	61 123
	61 126
	61 127
	61 129
	61 134
	61 135
	61 136
	61 138
	61 141
	61 143
	61 152
	61 157
	61 158
	62 67
	62 70
	62 74
	62 75
	62 77
	62 81
	62 83
	62 84
	62 87
	62 88
	62 97
	62 100
	62 107
	62 109
	62 113
	62 118
	62 121
	62 124
	62 131
	62 135
	62 143
	62 144
	62 152
	62 155
	63 64
	63 65
	63 66
	63 67
	63 68
	63 69
	63 71
	63 72
	63 73
	63 76
	63 78
	63 79
	63 80
	63 86
	63 89
	63 91
	63 92
	63 98
	63 101
	63 102
	63 103
	63 104
	63 105
	63 108
	63 109
	63 110
	63 112
	63 114
	63 116
	63 117
	63 118
	63 120
	63 123
	63 126
	63 128
	63 129
	63 132
	63 136
	63 138
	63 139
	63 140
	63 141
	63 146
	63 147
	63 149
	63 151
	63 153
	63 154
	63 159
	64 66
	64 68
	64 69
	64 72
	64 80
	64 89
	64 92
	64 94
	64 98
	64 103
	64 105
	64 123
	64 127
	64 130
	64 134
	64 136
	64 137
	64 146
	64 156
	64 157
	64 158
	65 67
	65 71
	65 73
	65 76
	65 78
	65 82
	65 85
	65 86
	65 90
	65 91
	65 93
	65 95
	65 99
	65 101
	65 102
	65 104
	65 108
	65 110
	65 111
	65 112
	65 114
	65 116
	65 117
	65 119
	65 120
	65 122
	65 126
	65 128
	65 129
	65 133
	65 136
	65 138
	65 139
	65 140
	65 142
	65 145
	65 147
	65 150
	65 151
	65 153
	65 154
	65 159
	65 160
	66 68
	66 69
	66 71
	66 72
	66 73
	66 76
	66 79
	66 80
	66 86
	66 89
	66 91
	66 92
	66 98
	66 101
	66 102
	66 103
	66 104
	66 105
	66 108
	66 112
	66 114
	66 117
	66 120
	66 123
	66 126
	66 129
	66 132
	66 136
	66 138
	66 139
	66 140
	66 146
	66 147
	66 149
	66 151
	66 153
	66 159
	67 70
	67 71
	67 73
	67 74
	67 75
	67 76
	67 77
	67 81
	67 83
	67 84
	67 88
	67 90
	67 92
	67 95
	67 97
	67 98
	67 99
	67 100
	67 102
	67 105
	67 107
	67 108
	67 109
	67 110
	67 111
	67 112
	67 113
	67 114
	67 116
	67 117
	67 118
	67 121
	67 123
	67 125
	67 126
	67 128
	67 129
	67 131
	67 135
	67 136
	67 138
	67 141
	67 143
	67 144
	67 151
	67 152
	67 154
	67 159
	68 69
	68 71
	68 72
	68 75
	68 80
	68 81
	68 89
	68 92
	68 94
	68 98
	68 102
	68 103
	68 105
	68 106
	68 109
	68 112
	68 114
	68 118
	68 123
	68 126
	68 127
	68 129
	68 130
	68 134
	68 136
	68 137
	68 138
	68 141
	68 146
	68 151
	68 153
	68 156
	68 157
	68 158
	68 159
	69 71
	69 72
	69 80
	69 81
	69 89
	69 92
	69 94
	69 98
	69 102
	69 103
	69 105
	69 106
	69 109
	69 112
	69 114
	69 118
	69 123
	69 127
	69 130
	69 134
	69 136
	69 137
	69 141
	69 146
	69 156
	69 157
	69 158
	70 74
	70 75
	70 77
	70 81
	70 83
	70 84
	70 87
	70 88
	70 90
	70 97
	70 100
	70 107
	70 109
	70 113
	70 116
	70 118
	70 121
	70 124
	70 125
	70 126
	70 128
	70 129
	70 131
	70 135
	70 141
	70 143
	70 144
	70 152
	70 155
	71 72
	71 73
	71 75
	71 76
	71 78
	71 80
	71 81
	71 86
	71 89
	71 90
	71 91
	71 92
	71 95
	71 98
	71 101
	71 102
	71 103
	71 105
	71 108
	71 109
	71 110
	71 112
	71 114
	71 116
	71 117
	71 118
	71 120
	71 122
	71 123
	71 126
	71 128
	71 129
	71 136
	71 138
	71 139
	71 141
	71 146
	71 151
	71 153
	71 154
	71 159
	72 80
	72 81
	72 89
	72 92
	72 94
	72 98
	72 102
	72 103
	72 105
	72 106
	72 112
	72 114
	72 118
	72 123
	72 127
	72 130
	72 134
	72 136
	72 137
	72 141
	72 146
	72 151
	72 153
	72 156
	72 157
	72 158
	73 76
	73 78
	73 79
	73 82
	73 85
	73 86
	73 89
	73 90
	73 91
	73 93
	73 95
	73 96
	73 98
	73 101
	73 102
	73 103
	73 104
	73 105
	73 108
	73 110
	73 111
	73 112
	73 114
	73 116
	73 117
	73 119
	73 120
	73 122
	73 123
	73 126
	73 128
	73 129
	73 132
	73 133
	73 136
	73 138
	73 139
	73 140
	73 145
	73 147
	73 148
	73 149
	73 151
	73 153
	73 154
	73 159
	74 83
	74 88
	74 90
	74 95
	74 97
	74 99
	74 100
	74 109
	74 110
	74 111
	74 113
	74 115
	74 116
	74 117
	74 121
	74 124
	74 125
	74 126
	74 128
	74 129
	74 131
	74 138
	74 141
	74 142
	74 143
	74 144
	74 150
	74 152
	74 155
	74 160
	75 77
	75 80
	75 81
	75 83
	75 84
	75 87
	75 88
	75 90
	75 92
	75 97
	75 102
	75 106
	75 107
	75 109
	75 113
	75 118
	75 121
	75 123
	75 124
	75 126
	75 127
	75 129
	75 131
	75 135
	75 141
	75 143
	75 152
	75 155
	75 157
	75 158
	76 78
	76 79
	76 82
	76 85
	76 86
	76 89
	76 90
	76 91
	76 93
	76 95
	76 98
	76 99
	76 101
	76 102
	76 104
	76 108
	76 109
	76 110
	76 111
	76 112
	76 114
	76 116
	76 117
	76 119
	76 120
	76 122
	76 123
	76 126
	76 128
	76 129
	76 132
	76 133
	76 136
	76 138
	76 139
	76 140
	76 141
	76 142
	76 145
	76 147
	76 151
	76 153
	76 154
	76 159
	76 160
	77 81
	77 83
	77 84
	77 87
	77 88
	77 92
	77 97
	77 100
	77 106
	77 107
	77 109
	77 113
	77 118
	77 121
	77 124
	77 131
	77 135
	77 141
	77 143
	77 152
	77 155
	78 79
	78 82
	78 85
	78 86
	78 90
	78 91
	78 93
	78 95
	78 96
	78 99
	78 101
	78 104
	78 108
	78 110
	78 111
	78 112
	78 114
	78 116
	78 117
	78 119
	78 120
	78 122
	78 126
	78 128
	78 129
	78 133
	78 138
	78 139
	78 140
	78 142
	78 145
	78 147
	78 151
	78 153
	78 154
	78 159
	78 160
	79 85
	79 86
	79 89
	79 91
	79 96
	79 101
	79 103
	79 104
	79 120
	79 132
	79 133
	79 139
	79 140
	79 146
	79 147
	79 148
	79 149
	79 151
	79 153
	80 81
	80 89
	80 92
	80 94
	80 98
	80 102
	80 103
	80 105
	80 106
	80 109
	80 112
	80 114
	80 118
	80 123
	80 127
	80 130
	80 134
	80 136
	80 137
	80 141
	80 146
	80 156
	80 157
	80 158
	81 83
	81 84
	81 87
	81 92
	81 97
	81 102
	81 105
	81 106
	81 107
	81 109
	81 113
	81 118
	81 121
	81 123
	81 126
	81 127
	81 129
	81 134
	81 135
	81 141
	81 143
	81 152
	81 157
	81 158
	82 85
	82 86
	82 91
	82 93
	82 95
	82 99
	82 101
	82 104
	82 108
	82 110
	82 111
	82 112
	82 116
	82 117
	82 119
	82 120
	82 122
	82 128
	82 133
	82 138
	82 139
	82 140
	82 142
	82 145
	82 147
	82 150
	82 151
	82 154
	82 159
	82 160
	83 84
	83 87
	83 88
	83 90
	83 97
	83 100
	83 107
	83 109
	83 113
	83 116
	83 118
	83 121
	83 124
	83 126
	83 129
	83 131
	83 135
	83 141
	83 143
	83 144
	83 152
	83 155
	84 87
	84 88
	84 92
	84 97
	84 100
	84 106
	84 107
	84 109
	84 113
	84 118
	84 121
	84 124
	84 126
	84 131
	84 135
	84 141
	84 143
	84 144
	84 152
	84 155
	85 86
	85 91
	85 93
	85 95
	85 96
	85 101
	85 104
	85 108
	85 119
	85 120
	85 122
	85 132
	85 133
	85 139
	85 140
	85 147
	85 148
	85 149
	85 151
	85 153
	85 154
	85 159
	86 89
	86 90
	86 91
	86 93
	86 95
	86 96
	86 98
	86 99
	86 101
	86 102
	86 104
	86 108
	86 110
	86 111
	86 112
	86 114
	86 116
	86 117
	86 119
	86 120
	86 122
	86 126
	86 128
	86 129
	86 132
	86 133
	86 136
	86 138
	86 139
	86 140
	86 145
	86 147
	86 148
	86 149
	86 151
	86 153
	86 154
	86 159
	86 160
	87 88
	87 97
	87 100
	87 106
	87 107
	87 109
	87 113
	87 118
	87 121
	87 124
	87 131
	87 135
	87 141
	87 143
	87 152
	87 155
	88 90
	88 97
	88 99
	88 100
	88 107
	88 109
	88 110
	88 113
	88 116
	88 118
	88 121
	88 124
	88 125
	88 126
	88 128
	88 129
	88 131
	88 135
	88 141
	88 143
	88 144
	88 150
	88 152
	88 155
	89 91
	89 92
	89 98
	89 101
	89 102
	89 103
	89 104
	89 105
	89 112
	89 114
	89 117
	89 120
	89 123
	89 126
	89 129
	89 132
	89 134
	89 136
	89 138
	89 139
	89 141
	89 146
	89 149
	89 151
	89 153
	89 156
	89 158
	89 159
	90 95
	90 97
	90 99
	90 100
	90 102
	90 108
	90 109
	90 110
	90 111
	90 112
	90 113
	90 114
	90 116
	90 117
	90 118
	90 119
	90 121
	90 122
	90 125
	90 126
	90 128
	90 129
	90 131
	90 138
	90 141
	90 142
	90 143
	90 144
	90 150
	90 151
	90 152
	90 154
	90 159
	90 160
	91 93
	91 95
	91 96
	91 98
	91 101
	91 102
	91 103
	91 104
	91 105
	91 108
	91 110
	91 112
	91 114
	91 116
	91 117
	91 120
	91 122
	91 123
	91 129
	91 132
	91 133
	91 136
	91 138
	91 139
	91 140
	91 146
	91 147
	91 148
	91 149
	91 151
	91 153
	91 154
	91 159
	92 94
	92 97
	92 98
	92 102
	92 105
	92 106
	92 107
	92 109
	92 112
	92 114
	92 118
	92 121
	92 123
	92 126
	92 127
	92 129
	92 130
	92 134
	92 135
	92 136
	92 137
	92 138
	92 141
	92 152
	92 156
	92 157
	92 158
	93 95
	93 99
	93 101
	93 104
	93 108
	93 110
	93 111
	93 116
	93 117
	93 119
	93 120
	93 122
	93 128
	93 133
	93 138
	93 139
	93 140
	93 142
	93 145
	93 147
	93 151
	93 154
	93 159
	93 160
	94 105
	94 106
	94 123
	94 127
	94 130
	94 134
	94 137
	94 156
	94 157
	94 158
	95 99
	95 101
	95 102
	95 104
	95 108
	95 110
	95 111
	95 112
	95 114
	95 115
	95 116
	95 117
	95 119
	95 120
	95 122
	95 126
	95 128
	95 129
	95 138
	95 139
	95 140
	95 142
	95 145
	95 147
	95 150
	95 151
	95 154
	95 159
	95 160
	96 101
	96 104
	96 120
	96 132
	96 133
	96 139
	96 140
	96 147
	96 148
	96 149
	96 153
	97 100
	97 106
	97 107
	97 109
	97 113
	97 118
	97 121
	97 124
	97 126
	97 129
	97 131
	97 135
	97 141
	97 143
	97 144
	97 152
	97 155
	98 101
	98 102
	98 103
	98 104
	98 105
	98 108
	98 109
	98 112
	98 114
	98 116
	98 117
	98 118
	98 120
	98 123
	98 126
	98 127
	98 129
	98 132
	98 134
	98 136
	98 138
	98 139
	98 141
	98 146
	98 151
	98 153
	98 156
	98 158
	98 159
	99 108
	99 109
	99 110
	99 111
	99 115
	99 116
	99 117
	99 119
	99 122
	99 125
	99 126
	99 128
	99 129
	99 131
	99 138
	99 142
	99 145
	99 150
	99 151
	99 154
	99 159
	99 160
	100 109
	100 113
	100 121
	100 124
	100 125
	100 131
	100 143
	100 144
	100 152
	100 155
	101 103
	101 104
	101 108
	101 110
	101 112
	101 114
	101 117
	101 119
	101 120
	101 122
	101 132
	101 133
	101 136
	101 138
	101 139
	101 140
	101 147
	101 148
	101 149
	101 151
	101 153
	101 154
	101 159
	102 103
	102 105
	102 108
	102 109
	102 110
	102 112
	102 114
	102 116
	102 117
	102 118
	102 120
	102 121
	102 123
	102 126
	102 128
	102 129
	102 136
	102 138
	102 141
	102 151
	102 153
	102 154
	102 158
	102 159
	103 104
	103 105
	103 112
	103 114
	103 120
	103 123
	103 132
	103 136
	103 139
	103 146
	103 149
	103 151
	103 153
	103 156
	104 108
	104 112
	104 114
	104 117
	104 120
	104 122
	104 132
	104 133
	104 136
	104 139
	104 140
	104 146
	104 147
	104 148
	104 149
	104 151
	104 153
	104 154
	104 159
	105 106
	105 109
	105 112
	105 114
	105 116
	105 117
	105 118
	105 120
	105 123
	105 126
	105 127
	105 129
	105 130
	105 132
	105 134
	105 136
	105 137
	105 138
	105 141
	105 146
	105 151
	105 153
	105 156
	105 157
	105 158
	105 159
	106 107
	106 109
	106 118
	106 121
	106 123
	106 127
	106 130
	106 134
	106 135
	106 137
	106 141
	106 152
	106 156
	106 157
	106 158
	107 109
	107 113
	107 118
	107 121
	107 123
	107 124
	107 126
	107 127
	107 135
	107 141
	107 143
	107 152
	107 157
	107 158
	108 109
	108 110
	108 111
	108 112
	108 114
	108 116
	108 117
	108 119
	108 120
	108 122
	108 126
	108 128
	108 129
	108 133
	108 136
	108 138
	108 139
	108 140
	108 142
	108 145
	108 147
	108 150
	108 151
	108 153
	108 154
	108 159
	108 160
	109 110
	109 112
	109 113
	109 114
	109 116
	109 117
	109 118
	109 121
	109 123
	109 124
	109 126
	109 128
	109 129
	109 131
	109 135
	109 136
	109 138
	109 141
	109 143
	109 151
	109 152
	109 159
	110 111
	110 112
	110 114
	110 115
	110 116
	110 117
	110 119
	110 120
	110 122
	110 125
	110 126
	110 128
	110 129
	110 131
	110 138
	110 141
	110 142
	110 145
	110 147
	110 150
	110 151
	110 154
	110 159
	110 160
	111 115
	111 116
	111 117
	111 119
	111 122
	111 125
	111 126
	111 128
	111 129
	111 131
	111 138
	111 142
	111 145
	111 150
	111 154
	111 159
	111 160
	112 114
	112 116
	112 117
	112 118
	112 120
	112 122
	112 123
	112 126
	112 128
	112 129
	112 132
	112 136
	112 138
	112 139
	112 140
	112 141
	112 146
	112 147
	112 151
	112 153
	112 154
	112 159
	113 116
	113 118
	113 121
	113 124
	113 125
	113 126
	113 128
	113 129
	113 131
	113 135
	113 141
	113 143
	113 144
	113 152
	113 155
	114 116
	114 117
	114 118
	114 120
	114 123
	114 126
	114 128
	114 129
	114 132
	114 136
	114 138
	114 139
	114 141
	114 146
	114 151
	114 153
	114 154
	114 159
	115 119
	115 122
	115 125
	115 128
	115 142
	115 145
	115 150
	115 160
	116 117
	116 118
	116 119
	116 120
	116 121
	116 122
	116 123
	116 125
	116 126
	116 128
	116 129
	116 131
	116 136
	116 138
	116 141
	116 142
	116 145
	116 150
	116 151
	116 154
	116 159
	116 160
	117 119
	117 120
	117 122
	117 123
	117 126
	117 128
	117 129
	117 136
	117 138
	117 139
	117 140
	117 141
	117 142
	117 145
	117 147
	117 150
	117 151
	117 153
	117 154
	117 159
	117 160
	118 121
	118 123
	118 126
	118 127
	118 128
	118 129
	118 134
	118 135
	118 136
	118 138
	118 141
	118 143
	118 152
	118 157
	118 158
	119 122
	119 128
	119 133
	119 138
	119 139
	119 140
	119 142
	119 145
	119 147
	119 150
	119 151
	119 154
	119 159
	119 160
	120 122
	120 123
	120 129
	120 132
	120 133
	120 136
	120 138
	120 139
	120 140
	120 146
	120 147
	120 148
	120 149
	120 151
	120 153
	120 154
	120 159
	121 123
	121 124
	121 126
	121 129
	121 131
	121 135
	121 141
	121 143
	121 144
	121 152
	121 155
	122 126
	122 128
	122 129
	122 133
	122 138
	122 139
	122 140
	122 142
	122 145
	122 147
	122 150
	122 151
	122 154
	122 159
	122 160
	123 126
	123 127
	123 129
	123 130
	123 134
	123 135
	123 136
	123 137
	123 138
	123 141
	123 146
	123 151
	123 153
	123 156
	123 157
	123 158
	123 159
	124 131
	124 135
	124 143
	124 144
	124 152
	124 155
	125 128
	125 131
	125 142
	125 144
	125 150
	125 155
	125 160
	126 128
	126 129
	126 131
	126 135
	126 136
	126 138
	126 141
	126 143
	126 151
	126 152
	126 154
	126 159
	127 130
	127 134
	127 135
	127 136
	127 137
	127 141
	127 156
	127 157
	127 158
	128 129
	128 131
	128 136
	128 138
	128 141
	128 142
	128 145
	128 150
	128 151
	128 154
	128 159
	128 160
	129 131
	129 136
	129 138
	129 141
	129 151
	129 152
	129 154
	129 159
	129 160
	130 134
	130 137
	130 156
	130 157
	130 158
	131 135
	131 141
	131 143
	131 144
	131 150
	131 152
	131 155
	132 133
	132 136
	132 139
	132 140
	132 146
	132 147
	132 148
	132 149
	132 151
	132 153
	133 139
	133 140
	133 147
	133 148
	133 149
	133 151
	133 153
	133 154
	134 136
	134 137
	134 156
	134 157
	134 158
	135 141
	135 143
	135 152
	135 155
	135 157
	136 138
	136 139
	136 141
	136 146
	136 151
	136 153
	136 156
	136 158
	136 159
	137 156
	137 157
	137 158
	138 139
	138 140
	138 141
	138 147
	138 151
	138 153
	138 154
	138 159
	138 160
	139 140
	139 146
	139 147
	139 148
	139 149
	139 151
	139 153
	139 154
	139 159
	140 147
	140 148
	140 149
	140 151
	140 153
	140 154
	140 159
	141 143
	141 151
	141 152
	141 157
	141 158
	141 159
	142 145
	142 150
	142 154
	142 160
	143 144
	143 152
	143 155
	144 150
	144 152
	144 155
	145 147
	145 150
	145 154
	145 159
	145 160
	146 149
	146 151
	146 153
	146 156
	147 148
	147 149
	147 151
	147 153
	147 154
	147 159
	148 149
	148 153
	149 153
	150 154
	150 160
	151 153
	151 154
	151 159
	152 155
	153 159
	154 159
	154 160
	156 157
	156 158
	157 158
	159 160
;

param c :=
	1 7
	2 5
	3 5
	4 5
	5 9
	6 3
	7 4
	8 6
	9 8
	10 9
	11 2
	12 5
	13 4
	14 8
	15 4
	16 9
	17 3
	18 9
	19 8
	20 2
	21 7
	22 7
	23 2
	24 3
	25 1
	26 1
	27 4
	28 5
	29 1
	30 2
	31 2
	32 5
	33 9
	34 4
	35 2
	36 4
	37 6
	38 4
	39 4
	40 3
	41 1
	42 8
	43 9
	44 3
	45 5
	46 6
	47 1
	48 2
	49 6
	50 7
	51 5
	52 4
	53 4
	54 5
	55 1
	56 9
	57 5
	58 4
	59 1
	60 6
	61 4
	62 3
	63 3
	64 1
	65 4
	66 4
	67 1
	68 5
	69 4
	70 7
	71 5
	72 7
	73 5
	74 9
	75 3
	76 1
	77 2
	78 9
	79 7
	80 7
	81 1
	82 9
	83 5
	84 6
	85 5
	86 5
	87 2
	88 1
	89 1
	90 7
	91 8
	92 7
	93 5
	94 5
	95 2
	96 6
	97 2
	98 7
	99 8
	100 7
	101 2
	102 1
	103 2
	104 1
	105 6
	106 6
	107 1
	108 1
	109 8
	110 8
	111 2
	112 3
	113 6
	114 2
	115 9
	116 4
	117 1
	118 6
	119 7
	120 7
	121 4
	122 8
	123 2
	124 3
	125 4
	126 5
	127 2
	128 3
	129 1
	130 2
	131 3
	132 3
	133 6
	134 4
	135 1
	136 1
	137 9
	138 1
	139 8
	140 7
	141 9
	142 7
	143 7
	144 6
	145 5
	146 8
	147 4
	148 7
	149 9
	150 9
	151 1
	152 4
	153 5
	154 7
	155 9
	156 3
	157 6
	158 9
	159 6
	160 9
;

